p cnf 50 70
-5 -9 19 0
43 41 -1 0
10 8 32 0
15 25 20 0
30 18 6 0
39 -42 44 0
41 28 -25 0
-44 39 6 0
-6 31 33 0
38 18 -7 0
31 -7 38 0
32 41 26 0
-15 16 -29 0
13 -1 16 0
4 34 -46 0
-39 -35 16 0
-13 -9 -38 0
-25 38 6 0
21 25 -46 0
45 -28 -15 0
2 47 -44 0
10 -39 42 0
3 46 -20 0
-10 -19 27 0
-28 35 16 0
-27 13 -18 0
10 -39 -49 0
42 44 -38 0
-23 39 16 0
34 -18 -14 0
34 2 35 0
-26 38 -3 0
44 -8 -28 0
28 12 32 0
-16 40 -28 0
31 -36 27 0
23 -8 16 0
-34 -16 39 0
-16 -22 20 0
-28 -48 -22 0
15 24 -41 0
-7 -39 15 0
3 10 -2 0
-21 -25 -18 0
39 31 -38 0
14 22 -5 0
-11 49 27 0
-25 21 -37 0
42 46 -44 0
-27 -30 5 0
x 4 -7 10 13 14 15 16 -18 -21 24 27 32 -33 34 -35 36 -40 42 44 -45 -47 48 -49 50 0
x 2 3 4 -7 12 13 17 -21 22 -24 26 -27 -31 32 -34 -36 -37 -38 -41 42 -45 47 48 -49 -50 0
x -1 2 3 4 -6 7 -9 10 -11 15 -17 18 -20 21 22 -23 24 26 27 28 -29 -31 33 37 -41 -44 45 46 -49 0
x 1 -3 -4 -5 -10 12 -15 -18 -21 -23 24 26 27 31 32 -33 -34 -35 -37 40 -43 44 -47 -48 -49 50 0
x 4 -5 7 8 10 -12 -13 14 -16 17 -18 19 20 21 -22 -26 27 -30 32 -35 -40 -42 -43 -45 -46 -48 50 0
x -1 -2 -4 7 12 13 -14 18 -19 20 -21 -22 30 31 -33 -34 -37 38 40 -42 -44 -45 46 -47 50 0
x -2 4 -5 7 8 9 -10 11 13 15 16 17 -18 -19 20 -22 -23 -28 -31 -36 37 -39 -40 -41 42 -43 -44 45 -46 48 -50 0
x -2 3 -4 5 -6 7 -8 -9 -10 11 -14 15 -16 -17 20 21 -26 27 -28 -29 -31 -32 34 35 -36 37 39 45 -47 48 50 0
x 3 -7 10 12 13 -14 -16 20 -23 24 26 -28 -32 -33 -34 37 39 -40 48 0
x -2 -4 5 -12 -13 18 -19 -21 -23 -24 -26 30 -31 -35 -37 -38 39 -43 44 46 -47 -48 0
x -3 8 12 13 -15 -16 17 -22 26 -28 -31 -33 34 -38 -40 41 43 -44 -45 46 47 48 -49 50 0
x -1 -2 -3 -6 7 -9 -10 12 -13 14 -15 16 -19 -20 21 -23 -24 25 -27 28 31 -34 35 36 38 -40 -46 -47 0
x 4 6 7 9 11 -12 -13 -14 15 -16 17 -19 -22 28 29 30 32 -33 34 37 39 -40 -42 -43 44 46 -47 48 -49 0
x 2 7 -8 -10 11 -12 13 -14 15 18 21 -22 -30 -37 -38 -39 40 42 44 -50 0
x 1 2 -4 -5 -7 -9 10 11 12 16 -18 -20 21 22 23 24 -28 30 -31 -37 -39 40 -42 43 44 -45 46 47 -48 50 0
x 3 4 -5 6 -8 -9 -10 16 18 19 21 22 -23 -24 26 -27 29 -31 33 -37 -39 40 44 50 0
x 2 -3 4 -5 8 10 13 17 -19 -20 22 23 25 27 -28 -29 -32 33 36 -37 39 41 42 43 46 48 -49 0
x -2 3 -5 -7 8 -10 11 -12 -13 -15 -20 -21 -23 24 -25 -28 29 30 -33 34 -35 36 38 -39 40 43 45 46 47 50 0
x 4 -5 8 13 -15 20 23 -24 26 30 -35 36 -38 39 -40 -41 -43 45 50 0
x 2 4 -6 -8 -11 15 -23 -25 -26 -28 -30 -36 41 43 -45 0
